c preprocessed version of munin4-wpp, 23 vertices, 66 edges
p td 23 66
0 1
0 11
7 0
5 0
8 0
10 0
1 2
1 11
1 6
10 1
12 1
18 1
17 1
2 3
2 4
11 2
10 2
4 3
15 3
5 4
7 4
8 4
5 6
7 5
5 8
9 5
13 5
19 5
16 5
7 6
11 6
7 8
13 7
16 7
9 8
13 8
19 8
16 8
9 10
10 11
12 10
18 10
17 10
12 11
17 11
12 13
12 14
13 14
15 14
16 15
17 15
16 17
19 18
20 21
20 10
20 9
20 14
20 19
20 18
21 22
21 5
21 8
22 20
22 3
22 14
22 15
